32      4       
10      10      10      10      
0       0       0       0       0       2       2       3       
5       0       1       1       1       2       5       31      
4       1       3       1       0       1       4       
2       0       2       6       6       1       5       
1       5       0       4       4       1       6       
3       3       7       5       0       3       7       11      30      
4       4       0       2       5       1       8       
2       2       3       4       0       1       9       
2       6       6       4       0       2       10      16      
4       3       0       2       3       1       12      
10      5       0       5       4       1       12      
4       4       4       0       3       3       13      19      20      
9       0       3       3       5       2       14      23      
3       1       0       3       5       2       15      29      
4       4       0       2       4       2       17      28      
1       3       0       7       2       3       20      21      24      
5       2       4       0       4       1       18      
6       0       6       5       2       2       21      24      
7       6       3       6       0       2       21      28      
9       0       3       5       8       2       22      28      
8       0       6       2       2       1       22      
5       5       4       6       0       2       25      27      
9       4       0       3       8       2       26      28      
9       6       3       0       1       1       25      
10      0       4       3       3       1       26      
4       0       7       3       4       1       32      
10      0       6       5       5       1       32      
6       5       4       0       4       1       32      
2       6       3       5       0       1       32      
4       4       2       5       0       1       32      
1       5       0       7       5       1       32      
0       0       0       0       0       0       
